40 40
20
3 3 34 37
3 4 37 36
3 5 29 22
3 6 25 16
3 7 32 20
3 8 37 12
3 9 37 27
3 10 34 27
3 12 37 0
3 16 25 0
3 40 22 0
4 4 25 36
4 14 25 22
4 22 28 0
5 3 35 24
5 4 35 20
5 8 32 12
5 12 32 0
5 13 29 27
22 40 0 0
